!!! Generated by AiiDA !!!
&FORCE_EVAL 
   &DFT 
      BASIS_SET_FILE_NAME  BASIS_MOLOPT
      &MGRID 
         CUTOFF  600
         NGRIDS  5
      &END MGRID
      POTENTIAL_FILE_NAME  POTENTIAL
      &PRINT
         &PDOS
            &LDOS
               COMPONENTS
               LIST  1
            &END LDOS
            &LDOS
               COMPONENTS
               LIST  2
            &END LDOS
            &LDOS
               COMPONENTS
               LIST  3
            &END LDOS
            &LDOS
               COMPONENTS
               LIST  1 2
            &END LDOS
            NLUMO  -1
            FILENAME PDOS
         &END PDOS
         &V_HARTREE_CUBE
            FILENAME  HART
            STRIDE  4 4 4
         &END V_HARTREE_CUBE
      &END PRINT
      &QS 
         EPS_DEFAULT  1.0E-14
         EXTRAPOLATION  ASPC
         EXTRAPOLATION_ORDER  3
         METHOD  GPW
      &END QS
      RESTART_FILE_NAME  ./aiida-RESTART.wfn
      &SCF
         ADDED_MOS  800
         CHOLESKY  INVERSE
         &DIAGONALIZATION
         &END DIAGONALIZATION
         EPS_SCF  1.0E-7
         MAX_SCF  1000
         &MIXING
            ALPHA  0.1
            BETA  1.5
            METHOD  BROYDEN_MIXING
            NBROYDEN  8
         &END MIXING
         &OUTER_SCF
            EPS_SCF  1.0E-7
            MAX_SCF  15
         &END OUTER_SCF
         &PRINT
            &RESTART
               ADD_LAST  NUMERIC
               &EACH
                  GEO_OPT  1
                  QS_SCF  0
               &END EACH
               FILENAME  RESTART
            &END RESTART
            &RESTART_HISTORY OFF
            &END RESTART_HISTORY
         &END 
         SCF_GUESS  RESTART
         &SMEAR
            ELECTRONIC_TEMPERATURE  300
            METHOD  FERMI_DIRAC
         &END SMEAR
      &END SCF
      &XC
         &XC_FUNCTIONAL PBE
         &END XC_FUNCTIONAL
      &END XC
   &END DFT
   METHOD  Quickstep
   &SUBSYS
      &CELL 
         ABC  80.000000  80.000000  60.000000
      &END CELL
      &KIND Au
         BASIS_SET  DZVP-MOLOPT-SR-GTH
         POTENTIAL  GTH-PBE-q11
      &END KIND
      &KIND C
         BASIS_SET  TZV2P-MOLOPT-GTH
         POTENTIAL  GTH-PBE-q4
      &END KIND
      &KIND O
         BASIS_SET  TZV2P-MOLOPT-GTH
         POTENTIAL  GTH-PBE-q6
      &END KIND
      &TOPOLOGY 
         COORDINATE  xyz
         COORD_FILE_NAME  geom.xyz
      &END TOPOLOGY
   &END SUBSYS
&END FORCE_EVAL
&GLOBAL 
   &DBCSR
      USE_MPI_ALLOCATOR  .FALSE.
   &END DBCSR
   ELPA_KERNEL  AUTO
   EXTENDED_FFT_LENGTHS
   PREFERRED_DIAG_LIBRARY  ELPA
   PRINT_LEVEL  LOW
   PROJECT  aiida
   RUN_TYPE  ENERGY
   WALLTIME  85500
&END GLOBAL
