&CONTROL
  calculation = 'bands'
  forc_conv_thr =   1.0000000000d-04
  nstep = 500
  outdir = './out/'
  prefix = 'aiida'
  pseudo_dir = './pseudo/'
  verbosity = 'high'
  wf_collect = .true.
/
&SYSTEM
  degauss =   1.0000000000d-03
  ecutrho =   4.0000000000d+02
  ecutwfc =   5.0000000000d+01
  ibrav = 0
  nat = 10
  ntyp = 2
  occupations = 'smearing'
/
&ELECTRONS
  conv_thr =   1.0000000000d-08
  electron_maxstep = 50
  mixing_beta =   2.5000000000d-01
  scf_must_converge = .false.
/
ATOMIC_SPECIES
C      12.011 C.pbe-n-kjpaw_psl.1.0.0.UPF
H      1.008 H.pbe-kjpaw_psl.1.0.0.UPF
ATOMIC_POSITIONS angstrom
C            1.4882287748       9.9343530111       7.5000000000 
C            0.7403927550       8.7403446191       7.5000000000 
C            1.4882393474       7.5463384392       7.5000000000 
C            2.8771544707       7.5463352743       7.5000000000 
C            3.6249942816       8.7403419277       7.5000000000 
C            2.8771484655       9.9343510018       7.5000000000 
H            0.9816065183      10.8985988749       7.5000000000 
H            0.9816268197       6.5820898224       7.5000000000 
H            3.3837694459       6.5820830565       7.5000000000 
H            3.3837598655      10.8985994430       7.5000000000 
K_POINTS crystal
68
        0.0000000000       0.0000000000       0.0000000000       1.0000000000
        0.0074626866       0.0000000000       0.0000000000       1.0000000000
        0.0149253731       0.0000000000       0.0000000000       1.0000000000
        0.0223880597       0.0000000000       0.0000000000       1.0000000000
        0.0298507463       0.0000000000       0.0000000000       1.0000000000
        0.0373134328       0.0000000000       0.0000000000       1.0000000000
        0.0447761194       0.0000000000       0.0000000000       1.0000000000
        0.0522388060       0.0000000000       0.0000000000       1.0000000000
        0.0597014925       0.0000000000       0.0000000000       1.0000000000
        0.0671641791       0.0000000000       0.0000000000       1.0000000000
        0.0746268657       0.0000000000       0.0000000000       1.0000000000
        0.0820895522       0.0000000000       0.0000000000       1.0000000000
        0.0895522388       0.0000000000       0.0000000000       1.0000000000
        0.0970149254       0.0000000000       0.0000000000       1.0000000000
        0.1044776119       0.0000000000       0.0000000000       1.0000000000
        0.1119402985       0.0000000000       0.0000000000       1.0000000000
        0.1194029851       0.0000000000       0.0000000000       1.0000000000
        0.1268656716       0.0000000000       0.0000000000       1.0000000000
        0.1343283582       0.0000000000       0.0000000000       1.0000000000
        0.1417910448       0.0000000000       0.0000000000       1.0000000000
        0.1492537313       0.0000000000       0.0000000000       1.0000000000
        0.1567164179       0.0000000000       0.0000000000       1.0000000000
        0.1641791045       0.0000000000       0.0000000000       1.0000000000
        0.1716417910       0.0000000000       0.0000000000       1.0000000000
        0.1791044776       0.0000000000       0.0000000000       1.0000000000
        0.1865671642       0.0000000000       0.0000000000       1.0000000000
        0.1940298507       0.0000000000       0.0000000000       1.0000000000
        0.2014925373       0.0000000000       0.0000000000       1.0000000000
        0.2089552239       0.0000000000       0.0000000000       1.0000000000
        0.2164179104       0.0000000000       0.0000000000       1.0000000000
        0.2238805970       0.0000000000       0.0000000000       1.0000000000
        0.2313432836       0.0000000000       0.0000000000       1.0000000000
        0.2388059701       0.0000000000       0.0000000000       1.0000000000
        0.2462686567       0.0000000000       0.0000000000       1.0000000000
        0.2537313433       0.0000000000       0.0000000000       1.0000000000
        0.2611940299       0.0000000000       0.0000000000       1.0000000000
        0.2686567164       0.0000000000       0.0000000000       1.0000000000
        0.2761194030       0.0000000000       0.0000000000       1.0000000000
        0.2835820896       0.0000000000       0.0000000000       1.0000000000
        0.2910447761       0.0000000000       0.0000000000       1.0000000000
        0.2985074627       0.0000000000       0.0000000000       1.0000000000
        0.3059701493       0.0000000000       0.0000000000       1.0000000000
        0.3134328358       0.0000000000       0.0000000000       1.0000000000
        0.3208955224       0.0000000000       0.0000000000       1.0000000000
        0.3283582090       0.0000000000       0.0000000000       1.0000000000
        0.3358208955       0.0000000000       0.0000000000       1.0000000000
        0.3432835821       0.0000000000       0.0000000000       1.0000000000
        0.3507462687       0.0000000000       0.0000000000       1.0000000000
        0.3582089552       0.0000000000       0.0000000000       1.0000000000
        0.3656716418       0.0000000000       0.0000000000       1.0000000000
        0.3731343284       0.0000000000       0.0000000000       1.0000000000
        0.3805970149       0.0000000000       0.0000000000       1.0000000000
        0.3880597015       0.0000000000       0.0000000000       1.0000000000
        0.3955223881       0.0000000000       0.0000000000       1.0000000000
        0.4029850746       0.0000000000       0.0000000000       1.0000000000
        0.4104477612       0.0000000000       0.0000000000       1.0000000000
        0.4179104478       0.0000000000       0.0000000000       1.0000000000
        0.4253731343       0.0000000000       0.0000000000       1.0000000000
        0.4328358209       0.0000000000       0.0000000000       1.0000000000
        0.4402985075       0.0000000000       0.0000000000       1.0000000000
        0.4477611940       0.0000000000       0.0000000000       1.0000000000
        0.4552238806       0.0000000000       0.0000000000       1.0000000000
        0.4626865672       0.0000000000       0.0000000000       1.0000000000
        0.4701492537       0.0000000000       0.0000000000       1.0000000000
        0.4776119403       0.0000000000       0.0000000000       1.0000000000
        0.4850746269       0.0000000000       0.0000000000       1.0000000000
        0.4925373134       0.0000000000       0.0000000000       1.0000000000
        0.5000000000       0.0000000000       0.0000000000       1.0000000000
CELL_PARAMETERS angstrom
      4.3651102589       0.0000000000       0.0000000000
      0.0000000000      17.4807780202       0.0000000000
      0.0000000000       0.0000000000      15.0000000000
