&FORCE_EVAL
   &DFT
      BASIS_SET_FILE_NAME BASIS_MOLOPT
      CHARGE 0
      &MGRID
         CUTOFF 1600
         NGRIDS 5
      &END MGRID
      MULTIPLICITY 2
      UKS .TRUE.
      &POISSON
         PERIODIC XYZ
         POISSON_SOLVER PERIODIC
      &END POISSON
      POTENTIAL_FILE_NAME POTENTIAL
      &PRINT
         &MO_CUBES
            ADD_LAST NUMERIC
            &EACH
               GEO_OPT 0
               QS_SCF 0
            &END EACH
            NHOMO 2
            NLUMO 2
            STRIDE 10 10 10
         &END MO_CUBES
      &END PRINT
      &QS
         EPS_DEFAULT 1e-14
         EXTRAPOLATION ASPC
         EXTRAPOLATION_ORDER 3
         METHOD GPW
      &END QS
    RESTART_FILE_NAME PROJ0-RESTART.wfn
    &SCF
      MAX_SCF 100
      SCF_GUESS RESTART

      EPS_SCF 1.0E-3
      ADDED_MOS 4
      CHOLESKY INVERSE
      &DIAGONALIZATION
        ALGORITHM STANDARD
      &END
      &MIXING
         ALPHA 0.1
         BETA 1.5
         METHOD BROYDEN_MIXING
         NBUFFER 8
      &END MIXING
      &OUTER_SCF
        MAX_SCF 50
        EPS_SCF 1.0E-3
      &END
    &END SCF
      &XC
         &XC_FUNCTIONAL PBE
         &END XC_FUNCTIONAL
      &END XC
   &END DFT
   METHOD Quickstep
   &SUBSYS
      &CELL
         A 18     0.0             0.0
         B 0.0             18     0.0
         C 0.0             0.0             18
         PERIODIC XYZ
      &END CELL
      &KIND Tb
         BASIS_SET DZVP-MOLOPT-SR-GTH-q19
         ELEMENT Tb
         MAGNETIZATION 1
         POTENTIAL GTH-PBE-q19
      &END KIND
      &KIND Tb1
         BASIS_SET DZVP-MOLOPT-SR-GTH-q19
         ELEMENT Tb
         MAGNETIZATION -1
         POTENTIAL GTH-PBE-q19
      &END KIND
      &KIND Au
         BASIS_SET DZVP-MOLOPT-SR-GTH-q11
         ELEMENT Au
         POTENTIAL GTH-PBE-q11
      &END KIND
      &TOPOLOGY
         COORD_FILE_FORMAT XYZ
         COORD_FILE_NAME aiida.coords.xyz
      &END TOPOLOGY
   &END SUBSYS
&END FORCE_EVAL
&GLOBAL
   &DBCSR
      USE_MPI_ALLOCATOR .FALSE.
   &END DBCSR
   ELPA_KERNEL AUTO
   EXTENDED_FFT_LENGTHS
   PREFERRED_DIAG_LIBRARY ELPA
   PRINT_LEVEL MEDIUM
   PROJECT PROJ
   RUN_TYPE ENERGY
   WALLTIME 1700
&END GLOBAL
